133947
42,81,19,99,68,50,26,34,83,57,80,89,93,12,23,92,9,106,8,97,55,29,30,5,52,65,31,98,13,88,69,6,40,56,20,16,64,90,17,21,22,62,77,46,86,25,45,72,82,2,33,84,53,7,18,49,37,39,73,48,85,36,71,54,95,67,41,11,104,38,105,101,70,94,3,78,96,60,91,79,43,1,87,44,66,59,10,27,28,58,76,24,102,74,14,47,61,15,4,103,35,75,32,63,51,100